p cnf 151 458
c t mc
-2 -3 -4 0
2 3 -4 0
-2 3 4 0
2 -3 4 0
1 4 -5 0
-1 -4 -5 0
1 -4 5 0
-1 4 5 0
-8 6 0
-8 7 0
-6 -7 8 0
11 -9 0
11 -10 0
9 10 -11 0
-12 -8 0
-12 -11 0
8 11 12 0
13 -9 -14 0
-13 9 -14 0
13 9 14 0
-13 -9 14 0
12 14 -15 0
-12 -14 -15 0
12 -14 15 0
-12 14 15 0
-19 -17 0
-19 18 0
17 -18 19 0
21 -19 0
21 -20 0
19 20 -21 0
22 3 -23 0
-22 -3 -23 0
22 -3 23 0
-22 3 23 0
-21 23 -24 0
21 -23 -24 0
-21 -23 24 0
21 23 24 0
-3 -24 -25 0
3 24 -25 0
-3 24 25 0
3 -24 25 0
-16 25 -26 0
16 -25 -26 0
-16 -25 26 0
16 25 26 0
-27 15 0
-27 -26 0
-15 26 27 0
27 8 -28 0
-27 -8 -28 0
27 -8 28 0
-27 8 28 0
5 -28 -29 0
-5 28 -29 0
5 28 29 0
-5 -28 29 0
30 -9 0
30 -14 0
9 14 -30 0
32 -30 0
32 31 0
30 -31 -32 0
33 9 0
33 -18 0
-9 18 -33 0
-14 -33 -34 0
14 33 -34 0
-14 33 34 0
14 -33 34 0
-35 -34 0
-35 -13 0
34 13 35 0
36 32 0
36 35 0
-32 -35 -36 0
-37 29 0
-37 -36 0
-29 36 37 0
-40 -38 0
-40 -39 0
38 39 40 0
41 -40 0
41 -30 0
40 30 -41 0
-42 -10 0
-42 -41 0
10 41 42 0
42 30 -43 0
-42 -30 -43 0
42 -30 43 0
-42 30 43 0
17 15 -44 0
-17 -15 -44 0
17 -15 44 0
-17 15 44 0
-45 -31 0
-45 -7 0
31 7 45 0
46 -44 0
46 45 0
44 -45 -46 0
47 -43 0
47 46 0
43 -46 -47 0
50 -49 0
50 30 0
49 -30 -50 0
-51 48 0
-51 -50 0
-48 50 51 0
-53 49 0
-53 -52 0
-49 52 53 0
-54 -18 0
-54 1 0
18 -1 54 0
-53 -54 -55 0
53 54 -55 0
-53 54 55 0
53 -54 55 0
56 -51 0
56 -55 0
51 55 -56 0
47 56 -57 0
-47 -56 -57 0
47 -56 57 0
-47 56 57 0
35 13 -58 0
-35 -13 -58 0
35 -13 58 0
-35 13 58 0
-58 -23 -59 0
58 23 -59 0
-58 23 59 0
58 -23 59 0
-61 -60 0
-61 8 0
60 -8 61 0
62 -10 0
62 -3 0
10 3 -62 0
-61 -62 -63 0
61 62 -63 0
-61 62 63 0
61 -62 63 0
64 -59 0
64 -63 0
59 63 -64 0
13 -66 -67 0
-13 66 -67 0
13 66 67 0
-13 -66 67 0
65 -67 -68 0
-65 67 -68 0
65 67 68 0
-65 -67 68 0
70 1 0
70 2 0
-1 -2 -70 0
-71 70 0
-71 38 0
-70 -38 71 0
-72 69 0
-72 71 0
-69 -71 72 0
-73 -68 0
-73 -72 0
68 72 73 0
-74 -64 0
-74 73 0
64 -73 74 0
75 57 0
75 -74 0
-57 74 -75 0
76 10 0
76 38 0
-10 -38 -76 0
-77 76 0
-77 -14 0
-76 14 77 0
-78 24 0
-78 -77 0
-24 77 78 0
-80 -65 0
-80 -79 0
65 79 80 0
81 -9 0
81 35 0
9 -35 -81 0
82 40 0
82 81 0
-40 -81 -82 0
-82 -83 -84 0
82 83 -84 0
-82 83 84 0
82 -83 84 0
85 80 0
85 84 0
-80 -84 -85 0
78 -85 -86 0
-78 85 -86 0
78 85 86 0
-78 -85 86 0
-87 75 0
-87 -86 0
-75 86 87 0
37 87 -88 0
-37 -87 -88 0
37 -87 88 0
-37 87 88 0
89 3 0
89 -39 0
-3 39 -89 0
-88 89 -90 0
88 -89 -90 0
-88 -89 90 0
88 89 90 0
-27 12 -91 0
27 -12 -91 0
-27 -12 91 0
27 12 91 0
68 -91 -92 0
-68 91 -92 0
68 91 92 0
-68 -91 92 0
90 -92 -93 0
-90 92 -93 0
90 92 93 0
-90 -92 93 0
94 30 0
94 31 0
-30 -31 -94 0
-96 50 0
-96 -95 0
-50 95 96 0
-25 -1 -97 0
25 1 -97 0
-25 1 97 0
25 -1 97 0
-98 -96 0
-98 -97 0
96 97 98 0
10 -99 -100 0
-10 99 -100 0
10 99 100 0
-10 -99 100 0
101 -100 0
101 81 0
100 -81 -101 0
-102 -81 0
-102 33 0
81 -33 102 0
-22 -4 -103 0
22 4 -103 0
-22 4 103 0
22 -4 103 0
-104 25 0
-104 22 0
-25 -22 104 0
-103 -104 -105 0
103 104 -105 0
-103 104 105 0
103 -104 105 0
-106 -70 0
-106 13 0
70 -13 106 0
-107 106 0
-107 65 0
-106 -65 107 0
108 105 0
108 107 0
-105 -107 -108 0
-109 102 0
-109 108 0
-102 -108 109 0
-101 -109 -110 0
101 109 -110 0
-101 109 110 0
101 -109 110 0
60 39 -111 0
-60 -39 -111 0
60 -39 111 0
-60 39 111 0
-112 -110 0
-112 -111 0
110 111 112 0
-113 -98 0
-113 -112 0
98 112 113 0
114 94 0
114 113 0
-94 -113 -114 0
34 -72 -115 0
-34 72 -115 0
34 72 115 0
-34 -72 115 0
116 114 0
116 115 0
-114 -115 -116 0
93 -116 -117 0
-93 116 -117 0
93 116 117 0
-93 -116 117 0
-118 34 0
-118 76 0
-34 -76 118 0
119 -58 0
119 -106 0
58 106 -119 0
120 -118 0
120 -119 0
118 119 -120 0
-121 -122 0
121 -122 0
-123 99 0
-123 -122 0
-99 122 123 0
-124 17 0
-124 95 0
-17 -95 124 0
125 -83 0
125 -124 0
83 124 -125 0
-126 123 0
-126 -125 0
-123 125 126 0
-128 -76 0
-128 38 0
76 -38 128 0
129 8 0
129 -128 0
-8 128 -129 0
130 -127 0
130 -129 0
127 129 -130 0
-130 -13 -131 0
130 13 -131 0
-130 13 131 0
130 -13 131 0
132 -126 0
132 -131 0
126 131 -132 0
120 -132 -133 0
-120 132 -133 0
120 132 133 0
-120 -132 133 0
134 -11 0
134 -62 0
11 62 -134 0
33 -134 -135 0
-33 134 -135 0
33 134 135 0
-33 -134 135 0
11 14 -136 0
-11 -14 -136 0
11 -14 136 0
-11 14 136 0
-137 -8 0
-137 136 0
8 -136 137 0
138 -135 0
138 137 0
135 -137 -138 0
139 133 0
139 -138 0
-133 138 -139 0
-99 -1 -140 0
99 1 -140 0
-99 1 140 0
99 -1 140 0
141 -48 0
141 140 0
48 -140 -141 0
-142 18 0
-142 -72 0
-18 72 142 0
143 141 0
143 142 0
-141 -142 -143 0
144 139 0
144 143 0
-139 -143 -144 0
-136 60 -145 0
136 -60 -145 0
-136 -60 145 0
136 60 145 0
-146 -42 0
-146 -30 0
42 30 146 0
2 -91 -147 0
-2 91 -147 0
2 91 147 0
-2 -91 147 0
146 -147 -148 0
-146 147 -148 0
146 147 148 0
-146 -147 148 0
149 -145 0
149 -148 0
145 148 -149 0
-150 144 0
-150 149 0
-144 -149 150 0
151 -117 0
151 150 0
117 -150 -151 0
81 109 93 -42 -133 29 -102 -120 0
141 126 92 -93 -6 -85 8 0
-24 -76 -86 -95 64 48 148 -11 0
-13 146 5 -99 0
146 -101 -116 -17 120 0
-49 6 44 40 130 -89 -147 0
-91 104 -135 144 -85 -20 0
113 127 73 137 -133 -102 -89 0
64 66 9 74 0
-141 122 -30 149 0
87 76 134 129 9 -33 -88 55 -30 0
-7 15 41 138 113 -136 -55 46 86 0
-72 25 99 12 84 109 73 42 0
-142 -125 -25 32 -126 112 -47 90 -135 0
10 16 -69 -77 -38 62 71 -102 -30 12 0
-127 -93 -148 142 1 0
-33 123 -39 45 105 -22 0
-130 72 61 1 115 140 -23 0
87 -21 -100 139 -32 -3 0
-84 1 -49 0
-89 30 -118 31 -52 0
-47 72 -109 -142 10 -30 0
-95 -91 -54 126 -14 -43 83 -142 0
80 -6 -33 -99 -106 0
-5 32 83 -72 -114 0
-148 8 -89 15 -135 51 -118 0
37 149 9 -45 19 -39 86 -143 136 -72 0
111 -126 85 115 -35 -118 -141 -136 0
44 27 94 -129 0
-58 -17 77 91 -116 124 -1 130 67 0
76 130 70 -55 -10 32 0
-128 -51 87 -88 -137 0
135 137 -111 0
-9 4 89 61 -65 0
-98 -95 131 116 -4 106 0
132 93 -19 48 -142 0
-73 98 7 77 60 -127 111 0
-15 51 48 -111 0
-70 40 79 -1 0
69 -93 -141 0
-60 -104 -35 29 -40 91 0
128 -142 135 -7 76 0
-72 66 -135 64 -23 -138 0
-51 50 -147 -28 127 -99 123 0
53 -127 19 -112 37 24 105 111 -38 141 0
23 -120 136 38 0
97 -135 -136 -76 96 16 133 24 143 0
-60 63 120 -43 -82 -123 8 0
58 -48 76 -10 -44 46 -39 -22 -4 0
151 0
